(set-logic QF_LIA)
(set-info :ran/ran2.smt2)
(set-info :smt-lib-version 2.0)
(declare-fun x1 () Int)
(declare-fun x2 () Int)
(declare-fun x3 () Int)
(declare-fun x4 () Int)
(declare-fun x5 () Int)
(declare-fun x6 () Int)
(assert (<= (+ (* (- 3) x1) (* (- 3) x2) (* 5 x3) (* 0 x4) (* (- 1) x5) (* 0 x6) ) 57))
(assert (<= (+ (* 10 x1) (* (- 7) x2) (* (- 1) x3) (* 1 x4) (* (- 3) x5) (* (- 3) x6) ) 872))
(assert (<= (+ (* (- 3) x1) (* (- 10) x2) (* (- 10) x3) (* 1 x4) (* 3 x5) (* (- 1) x6) ) 19))
(assert (<= (+ (* 8 x1) (* 6 x2) (* 10 x3) (* 1 x4) (* 10 x5) (* (- 6) x6) ) 869))
(assert (<= (+ (* 5 x1) (* 3 x2) (* 3 x3) (* (- 9) x4) (* 9 x5) (* (- 3) x6) ) (- 331)))
(assert (<= (+ (* (- 3) x1) (* 5 x2) (* (- 5) x3) (* (- 4) x4) (* 8 x5) (* 4 x6) ) 360))
(assert (<= (+ (* (- 7) x1) (* (- 10) x2) (* (- 5) x3) (* 0 x4) (* 9 x5) (* (- 6) x6) ) 72))
(assert (<= (+ (* 2 x1) (* 1 x2) (* (- 4) x3) (* (- 3) x4) (* (- 6) x5) (* (- 7) x6) ) (- 868)))
(assert (<= (+ (* (- 7) x1) (* (- 2) x2) (* 0 x3) (* 8 x4) (* 9 x5) (* (- 8) x6) ) 462))
(assert (<= (+ (* 7 x1) (* (- 3) x2) (* (- 4) x3) (* (- 6) x4) (* (- 8) x5) (* 1 x6) ) (- 329)))
(assert (<= (+ (* 8 x1) (* (- 6) x2) (* (- 9) x3) (* (- 10) x4) (* (- 7) x5) (* (- 6) x6) ) (- 478)))
(assert (<= (+ (* (- 9) x1) (* (- 2) x2) (* (- 3) x3) (* 1 x4) (* 9 x5) (* 2 x6) ) (- 655)))
(assert (<= (+ (* 1 x1) (* 0 x2) (* 0 x3) (* 0 x4) (* 0 x5) (* 0 x6) ) 891))
(assert (<= (+ (* (- 1) x1) (* 0 x2) (* 0 x3) (* 0 x4) (* 0 x5) (* 0 x6) ) 891))
(assert (<= (+ (* 0 x1) (* 1 x2) (* 0 x3) (* 0 x4) (* 0 x5) (* 0 x6) ) 891))
(assert (<= (+ (* 0 x1) (* (- 1) x2) (* 0 x3) (* 0 x4) (* 0 x5) (* 0 x6) ) 891))
(assert (<= (+ (* 0 x1) (* 0 x2) (* 1 x3) (* 0 x4) (* 0 x5) (* 0 x6) ) 891))
(assert (<= (+ (* 0 x1) (* 0 x2) (* (- 1) x3) (* 0 x4) (* 0 x5) (* 0 x6) ) 891))
(assert (<= (+ (* 0 x1) (* 0 x2) (* 0 x3) (* 1 x4) (* 0 x5) (* 0 x6) ) 891))
(assert (<= (+ (* 0 x1) (* 0 x2) (* 0 x3) (* (- 1) x4) (* 0 x5) (* 0 x6) ) 891))
(assert (<= (+ (* 0 x1) (* 0 x2) (* 0 x3) (* 0 x4) (* 1 x5) (* 0 x6) ) 891))
(assert (<= (+ (* 0 x1) (* 0 x2) (* 0 x3) (* 0 x4) (* (- 1) x5) (* 0 x6) ) 891))
(assert (<= (+ (* 0 x1) (* 0 x2) (* 0 x3) (* 0 x4) (* 0 x5) (* 1 x6) ) 891))
(assert (<= (+ (* 0 x1) (* 0 x2) (* 0 x3) (* 0 x4) (* 0 x5) (* (- 1) x6) ) 891))
